certificates/rado_a9_c104_N27.cnf
c Rad2 upper bound instance: x1 + 9*x2 - x3 = 104, interval [1,27]
p cnf 27 160
1 5 12 0
-1 -5 -12 0
1 13 14 0
-1 -13 -14 0
1 14 23 0
-1 -14 -23 0
2 6 12 0
-2 -6 -12 0
2 13 15 0
-2 -13 -15 0
2 14 24 0
-2 -14 -24 0
3 7 12 0
-3 -7 -12 0
3 13 16 0
-3 -13 -16 0
3 14 25 0
-3 -14 -25 0
4 8 12 0
-4 -8 -12 0
4 13 17 0
-4 -13 -17 0
4 14 26 0
-4 -14 -26 0
5 9 12 0
-5 -9 -12 0
5 13 18 0
-5 -13 -18 0
5 14 27 0
-5 -14 -27 0
1 6 11 0
-1 -6 -11 0
6 10 12 0
-6 -10 -12 0
6 13 19 0
-6 -13 -19 0
2 7 11 0
-2 -7 -11 0
7 11 12 0
-7 -11 -12 0
7 13 20 0
-7 -13 -20 0
3 8 11 0
-3 -8 -11 0
8 12 0
-8 -12 0
8 13 21 0
-8 -13 -21 0
4 9 11 0
-4 -9 -11 0
9 12 13 0
-9 -12 -13 0
9 13 22 0
-9 -13 -22 0
5 10 11 0
-5 -10 -11 0
10 12 14 0
-10 -12 -14 0
10 13 23 0
-10 -13 -23 0
6 11 0
-6 -11 0
11 12 15 0
-11 -12 -15 0
11 13 24 0
-11 -13 -24 0
12 16 0
-12 -16 0
12 13 25 0
-12 -13 -25 0
8 11 13 0
-8 -11 -13 0
12 13 17 0
-12 -13 -17 0
13 26 0
-13 -26 0
9 11 14 0
-9 -11 -14 0
12 14 18 0
-12 -14 -18 0
13 14 27 0
-13 -14 -27 0
1 10 15 0
-1 -10 -15 0
10 11 15 0
-10 -11 -15 0
12 15 19 0
-12 -15 -19 0
2 10 16 0
-2 -10 -16 0
11 16 0
-11 -16 0
12 16 20 0
-12 -16 -20 0
3 10 17 0
-3 -10 -17 0
11 12 17 0
-11 -12 -17 0
12 17 21 0
-12 -17 -21 0
4 10 18 0
-4 -10 -18 0
11 13 18 0
-11 -13 -18 0
12 18 22 0
-12 -18 -22 0
5 10 19 0
-5 -10 -19 0
11 14 19 0
-11 -14 -19 0
12 19 23 0
-12 -19 -23 0
6 10 20 0
-6 -10 -20 0
11 15 20 0
-11 -15 -20 0
12 20 24 0
-12 -20 -24 0
7 10 21 0
-7 -10 -21 0
11 16 21 0
-11 -16 -21 0
12 21 25 0
-12 -21 -25 0
8 10 22 0
-8 -10 -22 0
11 17 22 0
-11 -17 -22 0
12 22 26 0
-12 -22 -26 0
9 10 23 0
-9 -10 -23 0
11 18 23 0
-11 -18 -23 0
12 23 27 0
-12 -23 -27 0
1 9 24 0
-1 -9 -24 0
10 24 0
-10 -24 0
11 19 24 0
-11 -19 -24 0
2 9 25 0
-2 -9 -25 0
10 11 25 0
-10 -11 -25 0
11 20 25 0
-11 -20 -25 0
3 9 26 0
-3 -9 -26 0
10 12 26 0
-10 -12 -26 0
11 21 26 0
-11 -21 -26 0
4 9 27 0
-4 -9 -27 0
10 13 27 0
-10 -13 -27 0
11 22 27 0
-11 -22 -27 0
