certificates/rado_a9_c104_N27.drat
10 13 -27 0
-26 -27 0
-27 0
-24 26 0
-10 -13 0
d -23 -10 -13 0
26 0
-13 0
14 0
10 0
-4 0
-12 0
-24 0
9 0
17 0
8 0
16 0
23 0
20 0
25 0
11 0
0
